
Log started (V11.0.0) Sun Apr 13 14:06:09 2008

Tried aggregator 1 time.
Reduced MIP has 240 rows, 8001 columns, and 16040 nonzeros.
Presolve time =    0.05 sec.
Clique table members: 200.
MIP emphasis: balance optimality and feasibility.
MIP search method: dynamic search.
Parallel mode: none, using 1 thread.
Root relaxation solution time =    0.20 sec.

        Nodes                                         Cuts/
   Node  Left     Objective  IInf  Best Integer     Best Node    ItCnt     Gap

*     0+    0                        10142.0000       14.4554      814   99.86%
*     0+    0                           20.0000       14.4554      814   27.72%
      0     0       15.0000    54       20.0000      Fract: 4      827   25.00%
*     0+    0                           19.0000       15.0000      827   21.05%
*     0+    0                           18.0000       15.0000      827   16.67%
*     0+    0                           17.0000       15.0000      827   11.76%

Repeating presolve.
Tried aggregator 1 time.
MIP Presolve eliminated 1 rows and 6745 columns.
Aggregator did 6 substitutions.
Reduced MIP has 233 rows, 1250 columns, and 2538 nonzeros.
Tried aggregator 1 time.
Represolve time =    0.05 sec.
Clique table members: 577.
MIP emphasis: balance optimality and feasibility.
MIP search method: dynamic search.
Parallel mode: none, using 1 thread.
Root relaxation solution time =    0.03 sec.

        Nodes                                         Cuts/
   Node  Left     Objective  IInf  Best Integer     Best Node    ItCnt     Gap

      0     0       15.0000    71       17.0000       15.0000      351   11.76%
      0     2       15.0000    71       17.0000       15.0000      351   11.76%
    100    83       15.2797   180       17.0000       15.0000     5645   11.76%
    200   171       16.0000    83       17.0000       15.0000     9654   11.76%
    300   254       16.0000    64       17.0000       15.0000    17233   11.76%
*   320+    6                           16.0000       15.0000    19183    6.25%

Cover cuts applied:  215
Gomory fractional cuts applied:  1

Solution pool: 6 solutions saved.

MIP - Integer optimal solution:  Objective = 1.6000000000e+001
Solution time =    8.94 sec.  Iterations = 42204  Nodes = 375


Incumbent solution
Variable Name           Solution Value
Cmax                         16.000000
X_1_32                        1.000000
X_2_19                        1.000000
X_3_25                        1.000000
X_4_3                         1.000000
X_5_13                        1.000000
X_6_40                        1.000000
X_7_20                        1.000000
X_8_13                        1.000000
X_9_32                        1.000000
X_10_40                       1.000000
X_11_27                       1.000000
X_12_20                       1.000000
X_13_14                       1.000000
X_14_38                       1.000000
X_15_19                       1.000000
X_16_37                       1.000000
X_17_26                       1.000000
X_18_8                        1.000000
X_19_38                       1.000000
X_20_9                        1.000000
X_21_4                        1.000000
X_22_26                       1.000000
X_23_34                       1.000000
X_24_33                       1.000000
X_25_32                       1.000000
X_26_19                       1.000000
X_27_15                       1.000000
X_28_16                       1.000000
X_29_1                        1.000000
X_30_16                       1.000000
X_31_7                        1.000000
X_32_22                       1.000000
X_33_31                       1.000000
X_34_14                       1.000000
X_35_10                       1.000000
X_36_35                       1.000000
X_37_13                       1.000000
X_38_3                        1.000000
X_39_26                       1.000000
X_40_4                        1.000000
X_41_37                       1.000000
X_42_12                       1.000000
X_43_10                       1.000000
X_44_29                       1.000000
X_45_40                       1.000000
X_46_7                        1.000000
X_47_15                       1.000000
X_48_33                       1.000000
X_49_5                        1.000000
X_50_31                       1.000000
X_51_14                       1.000000
X_52_10                       1.000000
X_53_33                       1.000000
X_54_17                       1.000000
X_55_18                       1.000000
X_56_25                       1.000000
X_57_16                       1.000000
X_58_39                       1.000000
X_59_18                       1.000000
X_60_5                        1.000000
X_61_34                       1.000000
X_62_24                       1.000000
X_63_1                        1.000000
X_64_18                       1.000000
X_65_31                       1.000000
X_66_2                        1.000000
X_67_2                        1.000000
X_68_27                       1.000000
X_69_32                       1.000000
X_70_13                       1.000000
X_71_21                       1.000000
X_72_9                        1.000000
X_73_18                       1.000000
X_74_9                        1.000000
X_75_29                       1.000000
X_76_15                       1.000000
X_77_30                       1.000000
X_78_1                        1.000000
X_79_39                       1.000000
X_80_2                        1.000000
X_81_39                       1.000000
X_82_35                       1.000000
X_83_24                       1.000000
X_84_19                       1.000000
X_85_18                       1.000000
X_86_28                       1.000000
X_87_29                       1.000000
X_88_27                       1.000000
X_89_3                        1.000000
X_90_3                        1.000000
X_91_8                        1.000000
X_92_28                       1.000000
X_93_21                       1.000000
X_94_12                       1.000000
X_95_24                       1.000000
X_96_23                       1.000000
X_97_8                        1.000000
X_98_25                       1.000000
X_99_26                       1.000000
X_100_32                      1.000000
X_101_16                      1.000000
X_102_32                      1.000000
X_103_25                      1.000000
X_104_21                      1.000000
X_105_40                      1.000000
X_106_10                      1.000000
X_107_37                      1.000000
X_108_30                      1.000000
X_109_21                      1.000000
X_110_31                      1.000000
X_111_1                       1.000000
X_112_16                      1.000000
X_113_23                      1.000000
X_114_7                       1.000000
X_115_24                      1.000000
X_116_16                      1.000000
X_117_28                      1.000000
X_118_1                       1.000000
X_119_12                      1.000000
X_120_13                      1.000000
X_121_40                      1.000000
X_122_20                      1.000000
X_123_4                       1.000000
X_124_26                      1.000000
X_125_27                      1.000000
X_126_21                      1.000000
X_127_3                       1.000000
X_128_36                      1.000000
X_129_11                      1.000000
X_130_14                      1.000000
X_131_22                      1.000000
X_132_6                       1.000000
X_133_39                      1.000000
X_134_17                      1.000000
X_135_4                       1.000000
X_136_33                      1.000000
X_137_7                       1.000000
X_138_12                      1.000000
X_139_14                      1.000000
X_140_24                      1.000000
X_141_35                      1.000000
X_142_20                      1.000000
X_143_1                       1.000000
X_144_15                      1.000000
X_145_4                       1.000000
X_146_11                      1.000000
X_147_11                      1.000000
X_148_19                      1.000000
X_149_31                      1.000000
X_150_30                      1.000000
X_151_11                      1.000000
X_152_25                      1.000000
X_153_13                      1.000000
X_154_11                      1.000000
X_155_2                       1.000000
X_156_13                      1.000000
X_157_22                      1.000000
X_158_19                      1.000000
X_159_8                       1.000000
X_160_9                       1.000000
X_161_15                      1.000000
X_162_34                      1.000000
X_163_7                       1.000000
X_164_5                       1.000000
X_165_18                      1.000000
X_166_28                      1.000000
X_167_2                       1.000000
X_168_21                      1.000000
X_169_14                      1.000000
X_170_29                      1.000000
X_171_12                      1.000000
X_172_20                      1.000000
X_173_34                      1.000000
X_174_36                      1.000000
X_175_28                      1.000000
X_176_34                      1.000000
X_177_2                       1.000000
X_178_17                      1.000000
X_179_34                      1.000000
X_180_33                      1.000000
X_181_32                      1.000000
X_182_4                       1.000000
X_183_38                      1.000000
X_184_20                      1.000000
X_185_3                       1.000000
X_186_2                       1.000000
X_187_24                      1.000000
X_188_25                      1.000000
X_189_7                       1.000000
X_190_40                      1.000000
X_191_25                      1.000000
X_192_7                       1.000000
X_193_5                       1.000000
X_194_37                      1.000000
X_195_10                      1.000000
X_196_17                      1.000000
X_197_6                       1.000000
X_198_1                       1.000000
X_199_23                      1.000000
X_200_9                       1.000000
All other variables in the range 1-8001 are 0.
